# 48620
param n := 25;
param s := 1;
set E :=  (0,2) (0,4) (0,5) (0,7) (0,16) (0,24) (1,9) (1,12) (1,23) (1,24) (3,8) (5,10) (5,24) (6,11) (6,17) (6,20) (7,9) (7,12) (7,24) (8,14) (8,15) (9,13) (10,15) (10,22) (11,17) (11,21) (12,14) (13,16) (14,19) (16,17) (18,21) (18,22) (18,23) (21,23);
